33D32945 STP File, STP Format Version 1.0

SECTION Comments
Name "cube_n10_d4_s22"
Problem "Euclidean Steiner Tree Problem"
Remark "Generated with STPGenerator. 4 dimensions."
END

SECTION Graph
Nodes 10
END

SECTION Coordinates
DDDD 0 0.8650269224 0.5663939652 0.6338536677 0.0191505631
DDDD 1 0.5234706907 0.8290278501 0.4145243920 0.4607495118
DDDD 2 0.1862228323 0.3292264125 0.6730409189 0.5206844050
DDDD 3 0.2885274982 0.0973462291 0.2666000273 0.5636440160
DDDD 4 0.4461416623 0.7561149335 0.1936676377 0.5023851071
DDDD 5 0.0234475681 0.1250572825 0.8931799414 0.0834255573
DDDD 6 0.9698017333 0.4631831755 0.5185416162 0.7034413422
DDDD 7 0.9385241437 0.7902598408 0.9351547686 0.8035510656
DDDD 8 0.3566538055 0.5690084359 0.8227016287 0.8801244962
DDDD 9 0.3980362855 0.2372260202 0.3408740076 0.5842591182
END
